N = 6;
H = 5;
T = 2;

avail = array3d(1..N, 1..H, 1..T, [10, 10, 7, 6, 7, 2, 4, 7, 4, 10, 0, 2, 2, 0, 2, 10, 3, 3, 10, 2, 7, 6, 7, 7, 2, 8, 1, 8, 8, 5, 0, 9, 8, 10, 9, 2, 7, 3, 7, 5, 4, 4, 9, 7, 3, 0, 4, 6, 8, 2, 8, 0, 6, 5, 7, 10, 4, 3, 10, 10]);

r = array2d(1..H, 1..T, [0, 2, 0, 3, 2, 2, 1, 3, 0, 1]);
